param n := 120;
param c := 1000;
param : V : p w :=
   0	  16	 377
   1	  75	 284
   2	  32	 339
   3	  87	 366
   4	  41	 260
   5	  53	 374
   6	  99	 469
   7	  60	 253
   8	  59	 278
   9	  98	 397
  10	  10	 292
  11	  12	 311
  12	  38	 429
  13	  92	 260
  14	  56	 311
  15	  32	 448
  16	  29	 253
  17	  34	 299
  18	  77	 428
  19	   5	 269
  20	  42	 303
  21	   3	 491
  22	  13	 251
  23	  83	 258
  24	  55	 357
  25	  67	 265
  26	  40	 378
  27	  73	 350
  28	  48	 320
  29	  67	 330
  30	  82	 453
  31	  14	 250
  32	  15	 297
  33	  49	 380
  34	  31	 260
  35	   9	 360
  36	  35	 471
  37	  22	 258
  38	  23	 271
  39	  55	 391
  40	  51	 290
  41	  73	 319
  42	  43	 465
  43	  61	 254
  44	  54	 281
  45	  58	 420
  46	  80	 254
  47	  27	 326
  48	  12	 404
  49	  64	 297
  50	  74	 299
  51	  56	 364
  52	  43	 300
  53	   5	 336
  54	  77	 370
  55	  37	 303
  56	   6	 327
  57	   7	 358
  58	  48	 269
  59	  29	 373
  60	  29	 371
  61	   1	 254
  62	  10	 375
  63	  13	 451
  64	  94	 257
  65	  61	 292
  66	  67	 380
  67	  55	 295
  68	  28	 325
  69	  80	 357
  70	  23	 273
  71	  37	 370
  72	  79	 359
  73	  39	 318
  74	  78	 323
  75	  50	 457
  76	  74	 262
  77	  34	 281
  78	  45	 441
  79	  36	 255
  80	  83	 304
  81	  26	 468
  82	  74	 257
  83	  33	 275
  84	  26	 491
  85	 100	 252
  86	  99	 257
  87	  38	 359
  88	  65	 266
  89	  92	 375
  90	  52	 459
  91	  64	 252
  92	  99	 289
  93	  20	 427
  94	  19	 252
  95	  94	 321
  96	  17	 461
  97	  28	 263
  98	  64	 276
  99	  59	 425
 100	  31	 286
 101	  88	 289
 102	  90	 360
 103	  45	 277
 104	  65	 363
 105	  57	 402
 106	  34	 297
 107	  91	 301
 108	  54	 455
 109	   5	 260
 110	  92	 285
 111	  54	 493
 112	  40	 250
 113	  77	 257
 114	  76	 378
 115	  47	 299
 116	  10	 323
 117	  33	 390
 118	  95	 285
 119	 100	 325
;

set E :=
   0	   1
   0	   5
   0	   7
   0	  14
   0	  18
   0	  25
   0	  35
   0	  37
   0	  41
   0	  51
   0	  54
   0	  70
   0	  72
   0	  78
   0	  82
   0	  86
   0	  89
   0	  93
   0	  94
   0	 104
   0	 105
   0	 111
   0	 113
   0	 114
   0	 119
   1	  23
   1	  27
   1	  29
   1	  35
   1	  39
   1	  48
   1	  50
   1	  53
   1	  55
   1	  63
   1	  64
   1	  65
   1	  68
   1	  72
   1	  74
   1	  75
   1	  77
   1	  79
   1	  83
   1	  86
   1	  94
   1	  95
   1	  96
   1	 100
   1	 102
   1	 104
   1	 105
   1	 111
   2	   4
   2	   6
   2	   8
   2	  15
   2	  18
   2	  23
   2	  30
   2	  34
   2	  41
   2	  42
   2	  45
   2	  49
   2	  50
   2	  51
   2	  60
   2	  69
   2	  80
   2	  83
   2	  84
   2	 110
   2	 117
   3	   5
   3	   9
   3	  18
   3	  23
   3	  33
   3	  35
   3	  36
   3	  38
   3	  39
   3	  48
   3	  55
   3	  56
   3	  59
   3	  69
   3	  78
   3	  92
   3	 100
   3	 103
   3	 106
   3	 107
   3	 113
   3	 119
   4	   6
   4	  13
   4	  14
   4	  30
   4	  40
   4	  50
   4	  56
   4	  60
   4	  61
   4	  64
   4	  68
   4	  69
   4	  70
   4	  77
   4	  82
   4	  85
   4	  86
   4	  94
   4	  95
   4	 100
   5	   8
   5	  13
   5	  17
   5	  18
   5	  19
   5	  32
   5	  33
   5	  35
   5	  37
   5	  44
   5	  49
   5	  51
   5	  56
   5	  57
   5	  60
   5	  61
   5	  80
   5	  82
   5	  85
   5	  92
   5	  95
   5	  96
   5	  97
   5	  98
   5	 102
   5	 107
   6	  10
   6	  11
   6	  19
   6	  21
   6	  29
   6	  47
   6	  50
   6	  65
   6	  72
   6	  73
   6	  79
   6	  87
   6	  97
   6	 103
   6	 104
   6	 106
   6	 111
   6	 113
   7	   8
   7	  11
   7	  12
   7	  13
   7	  16
   7	  18
   7	  20
   7	  25
   7	  33
   7	  35
   7	  36
   7	  38
   7	  39
   7	  46
   7	  47
   7	  49
   7	  50
   7	  52
   7	  54
   7	  59
   7	  62
   7	  70
   7	  71
   7	  73
   7	  75
   7	  77
   7	  83
   7	  84
   7	  85
   7	  89
   7	  93
   7	  94
   7	  97
   7	 102
   7	 104
   7	 110
   7	 113
   7	 117
   8	  11
   8	  14
   8	  27
   8	  30
   8	  33
   8	  43
   8	  47
   8	  52
   8	  68
   8	  85
   8	  86
   8	  88
   8	  97
   8	 100
   8	 110
   8	 116
   8	 118
   9	  11
   9	  14
   9	  16
   9	  19
   9	  22
   9	  31
   9	  32
   9	  36
   9	  43
   9	  48
   9	  49
   9	  57
   9	  61
   9	  64
   9	  67
   9	  69
   9	  71
   9	  72
   9	  74
   9	  75
   9	  77
   9	  89
   9	  94
   9	  96
   9	  98
   9	 104
   9	 112
   9	 114
   9	 115
  10	  25
  10	  31
  10	  34
  10	  37
  10	  49
  10	  50
  10	  53
  10	  54
  10	  55
  10	  65
  10	  71
  10	  77
  10	  83
  10	  84
  10	  91
  10	  96
  10	 102
  10	 103
  10	 108
  10	 109
  10	 111
  10	 113
  10	 114
  10	 116
  10	 118
  11	  24
  11	  30
  11	  37
  11	  39
  11	  43
  11	  45
  11	  57
  11	  58
  11	  59
  11	  66
  11	  72
  11	  73
  11	  74
  11	  95
  11	  99
  11	 101
  11	 102
  11	 105
  11	 106
  11	 108
  11	 116
  12	  22
  12	  24
  12	  27
  12	  34
  12	  35
  12	  43
  12	  50
  12	  66
  12	  72
  12	  75
  12	  77
  12	  78
  12	  79
  12	  81
  12	  91
  12	  92
  12	  94
  12	  98
  12	 105
  12	 107
  12	 113
  12	 115
  12	 117
  12	 118
  13	  14
  13	  15
  13	  19
  13	  21
  13	  24
  13	  25
  13	  42
  13	  43
  13	  44
  13	  66
  13	  68
  13	  72
  13	  87
  13	  92
  13	 108
  13	 111
  13	 113
  13	 119
  14	  15
  14	  26
  14	  32
  14	  35
  14	  39
  14	  43
  14	  45
  14	  50
  14	  53
  14	  57
  14	  62
  14	  71
  14	  80
  14	  86
  14	  97
  14	 104
  14	 113
  14	 117
  14	 119
  15	  16
  15	  17
  15	  20
  15	  25
  15	  26
  15	  29
  15	  31
  15	  35
  15	  37
  15	  39
  15	  47
  15	  48
  15	  50
  15	  56
  15	  57
  15	  66
  15	  67
  15	  68
  15	  77
  15	  93
  15	 100
  15	 108
  15	 117
  16	  26
  16	  35
  16	  42
  16	  44
  16	  48
  16	  53
  16	  54
  16	  64
  16	  78
  16	  79
  16	  82
  16	  84
  16	  89
  16	 102
  16	 111
  16	 116
  16	 118
  17	  18
  17	  25
  17	  31
  17	  33
  17	  34
  17	  38
  17	  52
  17	  53
  17	  66
  17	  68
  17	  72
  17	  74
  17	  78
  17	  81
  17	  85
  17	  87
  17	  96
  17	 101
  17	 117
  17	 118
  18	  20
  18	  23
  18	  24
  18	  25
  18	  27
  18	  34
  18	  37
  18	  46
  18	  54
  18	  55
  18	  57
  18	  66
  18	  67
  18	  69
  18	  71
  18	  72
  18	  73
  18	  84
  18	  87
  18	 112
  18	 114
  18	 118
  18	 119
  19	  28
  19	  30
  19	  34
  19	  45
  19	  46
  19	  53
  19	  59
  19	  61
  19	  64
  19	  71
  19	  80
  19	  87
  19	  89
  19	  92
  19	  97
  19	 101
  19	 103
  19	 117
  20	  26
  20	  33
  20	  34
  20	  35
  20	  36
  20	  39
  20	  41
  20	  45
  20	  53
  20	  56
  20	  60
  20	  93
  20	  95
  20	 100
  20	 102
  20	 105
  20	 114
  20	 116
  20	 118
  20	 119
  21	  27
  21	  31
  21	  39
  21	  46
  21	  51
  21	  63
  21	  65
  21	  67
  21	  70
  21	  74
  21	  82
  21	  85
  21	  87
  21	  90
  21	 101
  21	 102
  21	 104
  21	 106
  21	 110
  22	  33
  22	  36
  22	  38
  22	  45
  22	  59
  22	  62
  22	  81
  22	  86
  22	  89
  22	  94
  22	  99
  23	  31
  23	  40
  23	  41
  23	  54
  23	  66
  23	  67
  23	  70
  23	  72
  23	  73
  23	  78
  23	  80
  23	  82
  23	  98
  23	 101
  23	 104
  23	 111
  23	 119
  24	  38
  24	  43
  24	  61
  24	  63
  24	  68
  24	  71
  24	  74
  24	  78
  24	  79
  24	  81
  24	  83
  24	  87
  24	  90
  24	  91
  24	 103
  25	  31
  25	  33
  25	  35
  25	  36
  25	  42
  25	  50
  25	  56
  25	  59
  25	  65
  25	  72
  25	  80
  25	  86
  25	 105
  25	 106
  25	 113
  25	 117
  26	  27
  26	  31
  26	  33
  26	  35
  26	  37
  26	  45
  26	  48
  26	  51
  26	  60
  26	  68
  26	  73
  26	  77
  26	  79
  26	  89
  26	  92
  26	  95
  26	  96
  26	  99
  26	 102
  26	 106
  26	 108
  26	 109
  26	 111
  26	 113
  26	 115
  26	 119
  27	  28
  27	  31
  27	  33
  27	  37
  27	  39
  27	  40
  27	  42
  27	  51
  27	  52
  27	  56
  27	  58
  27	  63
  27	  73
  27	  75
  27	  77
  27	  78
  27	  81
  27	  84
  27	  87
  27	  88
  27	  91
  27	  98
  27	 102
  27	 110
  27	 111
  27	 115
  28	  30
  28	  31
  28	  43
  28	  53
  28	  54
  28	  55
  28	  58
  28	  59
  28	  67
  28	  80
  28	  86
  28	  87
  28	  89
  28	  96
  28	  97
  28	 101
  28	 105
  28	 112
  29	  32
  29	  33
  29	  37
  29	  39
  29	  49
  29	  52
  29	  64
  29	  68
  29	  72
  29	  76
  29	  81
  29	  88
  29	  91
  29	  93
  29	  98
  29	 101
  29	 102
  29	 104
  29	 105
  29	 106
  29	 107
  29	 109
  29	 110
  29	 119
  30	  33
  30	  34
  30	  40
  30	  51
  30	  58
  30	  59
  30	  70
  30	  73
  30	  79
  30	  83
  30	  87
  30	  91
  30	  92
  30	  99
  30	 101
  30	 105
  30	 106
  30	 116
  30	 117
  31	  33
  31	  34
  31	  35
  31	  42
  31	  45
  31	  47
  31	  51
  31	  54
  31	  59
  31	  67
  31	  68
  31	  70
  31	  77
  31	  96
  31	 109
  31	 113
  31	 117
  31	 119
  32	  43
  32	  46
  32	  56
  32	  57
  32	  59
  32	  62
  32	  67
  32	  73
  32	  74
  32	  76
  32	  80
  32	  82
  32	  83
  32	  84
  32	  85
  32	  88
  32	  90
  32	  97
  32	  99
  32	 106
  32	 113
  32	 119
  33	  39
  33	  40
  33	  50
  33	  51
  33	  52
  33	  57
  33	  58
  33	  63
  33	  64
  33	  75
  33	  77
  33	  83
  33	  86
  33	  91
  33	  96
  33	 107
  33	 114
  33	 116
  34	  36
  34	  45
  34	  46
  34	  54
  34	  56
  34	  57
  34	  58
  34	  61
  34	  63
  34	  65
  34	  81
  34	  82
  34	  83
  34	  84
  34	  85
  34	  98
  34	 100
  34	 101
  34	 102
  34	 105
  34	 109
  35	  38
  35	  44
  35	  48
  35	  61
  35	  62
  35	  63
  35	  70
  35	  79
  35	  85
  35	  88
  35	  89
  35	  90
  35	  91
  35	  93
  35	  98
  35	 113
  35	 115
  35	 117
  36	  37
  36	  41
  36	  42
  36	  47
  36	  49
  36	  64
  36	  85
  36	  90
  36	  91
  36	  92
  36	  93
  36	  95
  36	 110
  36	 114
  37	  51
  37	  65
  37	  68
  37	  73
  37	  77
  37	  88
  37	  90
  37	  92
  37	  96
  37	 110
  37	 111
  37	 113
  37	 114
  37	 117
  38	  59
  38	  66
  38	  70
  38	  86
  38	  90
  38	 105
  38	 108
  38	 110
  38	 113
  38	 114
  38	 117
  39	  45
  39	  46
  39	  47
  39	  51
  39	  54
  39	  55
  39	  56
  39	  64
  39	  76
  39	  85
  39	  86
  39	  92
  39	 102
  39	 103
  39	 110
  39	 119
  40	  48
  40	  56
  40	  58
  40	  72
  40	  73
  40	  79
  40	  89
  40	  90
  40	  99
  40	 101
  40	 104
  40	 107
  40	 118
  41	  47
  41	  50
  41	  58
  41	  59
  41	  60
  41	  61
  41	  66
  41	  67
  41	  75
  41	  76
  41	  77
  41	  80
  41	  81
  41	  90
  41	 101
  41	 109
  41	 110
  41	 113
  41	 115
  41	 116
  41	 117
  42	  45
  42	  54
  42	  60
  42	  61
  42	  64
  42	  65
  42	  66
  42	  69
  42	  72
  42	  76
  42	  81
  42	  82
  42	  84
  42	  94
  42	 100
  42	 101
  42	 105
  42	 107
  42	 110
  42	 112
  42	 116
  42	 117
  43	  59
  43	  60
  43	  61
  43	  64
  43	  75
  43	  79
  43	  81
  43	  82
  43	  85
  43	  88
  43	  92
  43	  95
  43	  98
  43	 107
  43	 111
  43	 113
  43	 114
  43	 116
  43	 119
  44	  50
  44	  54
  44	  58
  44	  69
  44	  70
  44	  82
  44	  84
  44	  93
  44	 100
  44	 111
  44	 113
  45	  49
  45	  53
  45	  56
  45	  58
  45	  61
  45	  66
  45	  67
  45	  71
  45	  74
  45	  75
  45	  77
  45	  81
  45	  82
  45	  83
  45	  89
  45	  96
  45	  99
  45	 102
  45	 107
  46	  47
  46	  56
  46	  65
  46	  67
  46	  69
  46	  71
  46	  88
  46	  89
  46	  91
  46	 100
  46	 107
  46	 115
  47	  54
  47	  64
  47	  74
  47	  79
  47	  80
  47	  85
  47	  88
  47	  91
  47	  92
  47	  94
  47	  95
  47	  98
  47	 103
  47	 108
  47	 118
  48	  56
  48	  67
  48	  69
  48	  75
  48	  87
  48	  88
  48	  91
  48	  96
  48	  97
  48	  98
  48	 106
  48	 111
  48	 119
  49	  52
  49	  53
  49	  55
  49	  59
  49	  64
  49	  68
  49	  75
  49	  76
  49	  81
  49	  86
  49	  91
  49	  92
  49	  96
  49	 100
  49	 103
  49	 106
  49	 112
  50	  53
  50	  54
  50	  63
  50	  71
  50	  73
  50	  76
  50	  77
  50	  80
  50	  81
  50	  84
  50	  86
  50	  87
  50	  88
  50	  97
  50	 106
  50	 113
  51	  53
  51	  54
  51	  56
  51	  60
  51	  64
  51	  71
  51	  73
  51	  77
  51	  84
  52	  55
  52	  68
  52	  70
  52	  73
  52	  75
  52	  77
  52	  81
  52	  83
  52	  84
  52	  88
  52	  89
  52	  91
  52	  99
  52	 117
  53	  65
  53	  66
  53	  69
  53	  85
  53	  86
  53	  87
  53	  89
  53	  90
  53	  96
  53	  99
  53	 100
  53	 103
  53	 111
  53	 117
  53	 118
  54	  60
  54	  66
  54	  68
  54	  79
  54	  83
  54	  86
  54	  89
  54	  98
  54	 100
  54	 105
  54	 106
  54	 111
  54	 114
  55	  58
  55	  63
  55	  64
  55	  66
  55	  70
  55	  73
  55	  82
  55	  83
  55	  84
  55	  89
  55	  90
  55	  93
  55	 100
  55	 102
  55	 110
  55	 112
  55	 118
  56	  62
  56	  66
  56	  70
  56	  76
  56	  79
  56	  80
  56	  81
  56	  86
  56	  89
  56	  95
  56	  97
  56	 100
  56	 112
  56	 117
  56	 118
  57	  79
  57	  95
  57	  97
  57	 111
  58	  63
  58	  66
  58	  68
  58	  74
  58	  88
  58	  90
  58	  91
  58	  96
  58	 100
  59	  61
  59	  62
  59	  64
  59	  66
  59	  71
  59	  80
  59	  90
  59	 103
  59	 105
  59	 107
  59	 108
  59	 109
  59	 110
  59	 113
  59	 116
  60	  69
  60	  73
  60	  90
  60	  91
  60	  92
  60	  93
  60	  96
  60	 103
  60	 115
  60	 116
  61	  68
  61	  71
  61	  82
  61	  85
  61	  86
  61	  99
  61	 103
  61	 109
  61	 112
  62	  63
  62	  74
  62	  75
  62	  81
  62	  88
  62	  93
  62	  94
  62	  96
  62	 113
  62	 114
  62	 117
  62	 118
  63	  67
  63	  69
  63	  70
  63	  77
  63	  85
  63	  87
  63	  88
  63	  96
  63	 104
  63	 106
  63	 110
  63	 115
  63	 117
  64	  68
  64	  69
  64	  77
  64	  83
  64	  85
  64	  89
  64	  90
  64	  94
  64	  95
  64	  99
  64	 101
  64	 106
  64	 110
  64	 111
  64	 114
  65	  66
  65	  68
  65	  69
  65	  70
  65	  71
  65	  74
  65	  76
  65	  77
  65	  81
  65	  82
  65	  86
  65	  88
  65	  89
  65	  93
  65	  99
  65	 109
  65	 110
  65	 111
  65	 118
  65	 119
  66	  79
  66	  87
  66	  92
  66	  93
  66	  94
  66	 102
  66	 104
  66	 112
  66	 117
  66	 119
  67	  73
  67	  77
  67	  81
  67	  87
  67	  91
  67	  93
  67	  98
  67	 101
  67	 107
  68	  71
  68	  75
  68	  79
  68	  85
  68	  90
  68	 100
  68	 107
  69	  72
  69	  77
  69	  78
  69	  85
  69	  86
  69	  87
  69	  91
  69	  95
  69	  99
  69	 103
  69	 106
  70	  72
  70	  90
  70	  92
  70	 100
  70	 107
  70	 108
  70	 116
  70	 117
  70	 118
  70	 119
  71	  73
  71	  75
  71	  82
  71	  84
  71	  87
  71	  96
  71	 102
  71	 113
  71	 118
  72	  73
  72	  83
  72	  88
  72	  92
  72	  99
  72	 110
  72	 112
  72	 116
  73	  74
  73	  79
  73	  81
  73	  92
  73	  99
  74	  81
  74	  95
  74	 102
  74	 105
  74	 106
  74	 110
  74	 111
  74	 118
  75	  84
  75	  86
  75	  91
  75	  92
  75	 108
  75	 109
  75	 111
  75	 114
  75	 119
  76	  79
  76	  86
  76	  90
  76	  95
  76	  97
  76	  99
  76	 107
  76	 109
  76	 111
  76	 115
  76	 118
  76	 119
  77	  83
  77	  85
  77	  86
  77	  95
  77	 107
  77	 110
  77	 111
  77	 113
  77	 115
  77	 119
  78	  79
  78	  80
  78	  89
  78	  92
  78	  96
  78	 100
  78	 114
  79	  83
  79	  97
  79	 100
  79	 102
  79	 103
  79	 107
  79	 114
  80	  82
  80	  95
  80	  96
  80	 102
  80	 107
  80	 119
  81	  93
  81	  95
  81	 100
  81	 104
  81	 119
  82	  85
  82	  86
  82	  98
  82	  99
  82	 100
  82	 101
  82	 115
  83	 100
  83	 101
  83	 107
  84	  86
  84	  89
  84	  94
  84	  96
  84	  97
  84	 100
  84	 101
  84	 102
  84	 104
  84	 106
  84	 109
  84	 110
  85	  91
  85	 100
  85	 106
  85	 110
  85	 111
  85	 119
  86	  89
  86	 107
  86	 110
  86	 111
  87	  92
  87	  94
  87	  99
  87	 116
  88	  91
  88	  96
  88	  98
  88	 106
  88	 119
  89	  92
  89	  93
  89	  96
  89	  97
  89	  99
  89	 113
  90	  95
  90	 102
  90	 103
  90	 106
  90	 107
  90	 109
  90	 117
  90	 118
  91	  93
  91	 101
  91	 110
  91	 117
  92	  97
  92	 110
  93	  97
  93	 104
  93	 105
  93	 115
  94	 100
  94	 101
  94	 107
  94	 110
  94	 116
  95	  98
  95	 110
  95	 112
  95	 114
  95	 117
  96	  97
  96	 103
  96	 104
  96	 116
  96	 118
  97	  99
  97	 105
  97	 112
  97	 116
  98	  99
  98	 106
  98	 113
  99	 105
  99	 113
  99	 116
 100	 104
 100	 105
 100	 112
 101	 115
 101	 118
 102	 109
 102	 110
 103	 104
 103	 115
 103	 116
 103	 119
 104	 113
 104	 114
 104	 116
 104	 118
 105	 114
 106	 115
 107	 108
 107	 112
 107	 119
 108	 109
 108	 110
 108	 115
 108	 119
 109	 110
 109	 113
 110	 115
 110	 117
 111	 117
 112	 113
 113	 115
 114	 116
 116	 117
 116	 118
;
